NAME: random-11-23982
TYPE: TSP
COMMENT: size=11 seed=23982
DIMENSION: 24
EDGE_WEIGHT_TYPE: EUC_2D
NODE_COORD_SECTION
+0 474 880
-0 474 880
+1 188 707
-1 392 36
+2 756 733
-2 621 998
+3 728 881
-3 780 105
+4 649 830
-4 715 843
+5 782 868
-5 10 663
+6 996 714
-6 583 742
+7 840 665
-7 597 619
+8 566 908
-8 576 69
+9 741 738
-9 329 855
+10 766 643
-10 416 250
+11 542 869
-11 787 963
PRECEDENCE_SECTION
+0 -0
+1 -1
+2 -2
+3 -3
+4 -4
+5 -5
+6 -6
+7 -7
+8 -8
+9 -9
+10 -10
+11 -11
EOF
